709080
708529
702922
702922
702922
697340
697340
697340
697340
697237
697237
693723
690009
683856
683371
683371
674372
674372
674372
672834
668172
658962
658962
658962
654558
654558
654558
653817
653817
650915
650034
650034
648483
640640
640640
640640
640640
640640
640640
640640
640640
632293
632293
632017
631413
631413
630146
629092
629092
628086
625974
625974
625974
623953
623953
623935
619081
614867
614867
614867
614867
613366
613366
613366
610696
607234
607234
607234
607234
601421
601421
601421
601421
601421
601421
601421
601421
601265
598518
593635
593635
593542
591653
591653
591653
591097
591097
590892
588346
588346
588346
586997
582566
582566
582566
582566
582566
582566
582566
579588
